TOUR_SECTION
153
48
102
139
121
52
155
190
174
111
53
100
21
96
141
144
18
168
189
32
45
57
34
44
20
46
175
3
62
23
134
183
198
74
76
106
80
142
137
120
16
9
165
150
178
11
99
109
161
88
63
2
81
160
163
186
27
15
197
26
173
39
151
86
94
77
85
187
24
170
179
60
72
152
196
31
82
83
184
79
143
42
36
115
90
177
5
157
166
112
131
188
50
154
132
195
12
145
192
8
126
37
35
162
69
194
91
14
68
117
114
159
61
98
71
135
28
19
30
56
158
125
116
182
181
51
107
10
33
67
148
122
164
156
191
172
64
128
110
6
130
140
136
129
54
108
43
147
104
95
138
84
17
29
13
75
92
119
133
113
200
167
171
7
58
38
87
149
118
40
22
103
89
65
169
4
101
97
41
146
185
25
78
73
55
66
70
105
127
49
176
123
47
1
93
193
124
180
199
59
-1
EOF